
Gurobi 10.0.1 (win64) logging started Sat Sep  9 15:36:48 2023

Set parameter LogFile to value "results-heuristic-start//log/URT_13_deadline.log"
Gurobi Optimizer version 10.0.1 build v10.0.1rc0 (win64)

CPU model: AMD Ryzen 7 3700X 8-Core Processor, instruction set [SSE2|AVX|AVX2]
Thread count: 8 physical cores, 16 logical processors, using up to 16 threads

Optimize a model with 656 rows, 451 columns and 2653 nonzeros
Model fingerprint: 0x029bf7a0
Model has 1 quadratic constraint
Variable types: 54 continuous, 397 integer (396 binary)
Coefficient statistics:
  Matrix range     [1e+00, 1e+06]
  QMatrix range    [1e+00, 1e+00]
  QLMatrix range   [1e+00, 1e+01]
  Objective range  [1e+00, 1e+00]
  Bounds range     [1e+00, 1e+00]
  RHS range        [1e+00, 3e+06]

Warning: Completing partial solution with 379 unfixed non-continuous variables out of 397
User MIP start produced solution with objective 1114 (0.02s)
Loaded user MIP start with objective 1114

Presolve removed 81 rows and 168 columns
Presolve time: 0.01s
Presolved: 594 rows, 301 columns, 2647 nonzeros
Variable types: 72 continuous, 229 integer (228 binary)

Root relaxation: objective 0.000000e+00, 66 iterations, 0.00 seconds (0.00 work units)

    Nodes    |    Current Node    |     Objective Bounds      |     Work
 Expl Unexpl |  Obj  Depth IntInf | Incumbent    BestBd   Gap | It/Node Time

     0     0    0.00000    0    6 1114.00000    0.00000   100%     -    0s
H    0     0                      81.0000000    0.00000   100%     -    0s
H    0     0                      80.0000000    0.00000   100%     -    0s
     0     0    0.00000    0   10   80.00000    0.00000   100%     -    0s
H    0     0                      76.0000000    0.00000   100%     -    0s
H    0     0                      74.0000000    0.00000   100%     -    0s
     0     0    0.00000    0   13   74.00000    0.00000   100%     -    0s
     0     0    0.00000    0    5   74.00000    0.00000   100%     -    0s
H    0     0                      66.0000000    0.00000   100%     -    0s
H    0     0                      51.0000000    0.00000   100%     -    0s
     0     0    0.00000    0    6   51.00000    0.00000   100%     -    0s
     0     0    0.00000    0    3   51.00000    0.00000   100%     -    0s
     0     0    0.00000    0    3   51.00000    0.00000   100%     -    0s
     0     0    0.00000    0    3   51.00000    0.00000   100%     -    0s
H    0     0                      50.0000000    0.00000   100%     -    0s
     0     0    0.00000    0   12   50.00000    0.00000   100%     -    0s
     0     0    0.00000    0    1   50.00000    0.00000   100%     -    0s
H    0     0                      48.0000000    0.00000   100%     -    0s
     0     0    0.00000    0    3   48.00000    0.00000   100%     -    0s
     0     0    0.00000    0    4   48.00000    0.00000   100%     -    0s
     0     0    0.00000    0    7   48.00000    0.00000   100%     -    0s
     0     0    0.00000    0    7   48.00000    0.00000   100%     -    0s
     0     0    0.00000    0    7   48.00000    0.00000   100%     -    0s
     0     2    0.00000    0    7   48.00000    0.00000   100%     -    0s
H  699   564                      47.0000000    0.00000   100%   6.9    0s
H 1105   503                      37.0000000    0.00000   100%   6.8    1s
H 1106   482                      32.0000000    0.00000   100%   6.8    1s
H 1399   636                      26.0000000    0.00000   100%   7.3    1s
H 1716   700                      24.0000000    0.00000   100%   7.6    1s
H 3184   984                      22.0000000    0.00000   100%   7.5    1s
H 3541  1143                      20.0000000    0.00000   100%   5.9    4s
  3546  1159    2.00000   40   18   20.00000    0.00000   100%   5.9    6s
 17245  5384    2.00000   45   16   20.00000    0.00000   100%  11.2   10s
 47981 13905    2.00000   49    9   20.00000    1.00000  95.0%  12.5   15s
 135951 30190 infeasible   54        20.00000    3.00000  85.0%  13.8   20s
 217527 38540 infeasible   50        20.00000    4.00000  80.0%  13.9   25s
 297205 43372 infeasible   54        20.00000    6.00000  70.0%  13.9   30s
 371503 44881 infeasible   52        20.00000    7.00000  65.0%  13.7   35s
 433386 44702 infeasible   49        20.00000    9.00000  55.0%  13.6   40s
 510381 43762   11.81928   45   15   20.00000   10.00000  50.0%  13.4   45s
 572343 40485   12.00000   51   11   20.00000   11.00000  45.0%  13.2   50s
 644438 35081   16.00000   55    9   20.00000   12.00000  40.0%  13.0   55s
 708268 28037   16.00000   51    8   20.00000   13.53333  32.3%  12.8   60s
 763770 20812 infeasible   54        20.00000   15.00000  25.0%  12.6   65s
 827917  9354   18.00000   50    6   20.00000   17.00000  15.0%  12.4   70s

Cutting planes:
  Learned: 3
  Gomory: 4
  Cover: 2
  Implied bound: 17
  MIR: 4
  Flow cover: 8

Explored 862993 nodes (10576152 simplex iterations) in 72.69 seconds (28.41 work units)
Thread count was 16 (of 16 available processors)

Solution count 10: 20 20 22 ... 50

Optimal solution found (tolerance 1.00e-04)
Best objective 2.000000000000e+01, best bound 2.000000000000e+01, gap 0.0000%
Warning: constraint name "precedence between 0,2 to 0,0 if x_[j,l,h,z,i]=1" has a space
Warning: constraint name "precedence between 0,2 to 0,0 if x_[j,l,h,z,i]=1" has a space
Warning: default constraint names used to write mps file
